results_rootrelaxation/bin018_050_015.srr.sol
solution status: optimal solution found
objective value:                                    0
_var711_                           0.0773265539212037 	(obj:0)
_var2341_                          0.0338867477856716 	(obj:0)
_var2677_                         0.000166670260528967 	(obj:0)
_var2678_                           0.139419691647475 	(obj:0)
_var2680_                           0.150957535809442 	(obj:0)
_var2681_                          0.0437657925706099 	(obj:0)
_var2690_                           0.136247510784781 	(obj:0)
_var2691_                           0.272357420258696 	(obj:0)
_var2694_                          0.0833859810487255 	(obj:0)
_var2695_                           0.140647465146481 	(obj:0)
_var2702_                           0.111927597808629 	(obj:0)
_var2703_                          0.0900389036018441 	(obj:0)
_var2704_                           0.094236907534584 	(obj:0)
_var2705_                           0.261493878653012 	(obj:0)
_var2711_                          0.0311622986371762 	(obj:0)
_var2714_                          0.0897855985939069 	(obj:0)
_var2716_                          0.0589431150039243 	(obj:0)
_var2717_                           0.219691882858692 	(obj:0)
_var2721_                           0.195168165555868 	(obj:0)
_var2724_                           0.292453110893718 	(obj:0)
_var2735_                            0.35402201937043 	(obj:0)
_var2742_                           0.166366966880939 	(obj:0)
_var2745_                          0.0396099297169543 	(obj:0)
_var2751_                          0.0353363620461247 	(obj:0)
_var2752_                           0.165747229316385 	(obj:0)
_var2753_                          0.0323098544152886 	(obj:0)
_var2754_                            0.36730125061612 	(obj:0)
_var2756_                           0.104941572595635 	(obj:0)
_var2760_                           0.197982523082981 	(obj:0)
_var2762_                            0.15041316244867 	(obj:0)
_var2763_                           0.129878451494533 	(obj:0)
_var2774_                            0.27657220454739 	(obj:0)
_var2779_                           0.138737878641376 	(obj:0)
_var2780_                           0.151871037869237 	(obj:0)
_var2781_                           0.223222318778012 	(obj:0)
_var2782_                           0.097578348768511 	(obj:0)
_var2784_                           0.208684624867894 	(obj:0)
_var2790_                          0.0615769226732159 	(obj:0)
_var2792_                          0.0807969059664893 	(obj:0)
_var2795_                           0.153111528258357 	(obj:0)
_var2798_                           0.213790097067304 	(obj:0)
_var2799_                           0.088634625706534 	(obj:0)
_var2801_                           0.137413602533876 	(obj:0)
_var2805_                           0.142959551485432 	(obj:0)
_var2806_                          0.0174743603750671 	(obj:0)
_var2807_                          0.0119176614014151 	(obj:0)
_var2809_                           0.209982862235859 	(obj:0)
_var2810_                          0.0817519623542787 	(obj:0)
_var2811_                           0.211963754652387 	(obj:0)
_var2812_                           0.372119212286998 	(obj:0)
_var2813_                           0.124545792523159 	(obj:0)
_var2816_                          0.0161218568806031 	(obj:0)
_var2817_                           0.168829372923603 	(obj:0)
_var2819_                          0.0649279161638401 	(obj:0)
_var2822_                            0.10467776695652 	(obj:0)
_var2824_                           0.225707237255934 	(obj:0)
_var2828_                           0.171191488497717 	(obj:0)
_var2832_                           0.201739155622333 	(obj:0)
_var2834_                           0.277855450896939 	(obj:0)
_var2835_                          0.0129746297535693 	(obj:0)
_var2836_                          0.0335824868236273 	(obj:0)
_var2837_                           0.311994537862851 	(obj:0)
_var2840_                           0.259196412331093 	(obj:0)
_var2845_                          0.0439062361014774 	(obj:0)
_var2847_                           0.279502004996748 	(obj:0)
_var2850_                           0.115303984263172 	(obj:0)
_var2852_                           0.125848998087165 	(obj:0)
_var2853_                          0.0251850453556347 	(obj:0)
_var2855_                           0.156537086145118 	(obj:0)
_var2857_                           0.187832642536017 	(obj:0)
_var2858_                           0.094902971141202 	(obj:0)
_var2859_                           0.131280259474805 	(obj:0)
_var2860_                           0.078072454727307 	(obj:0)
_var2861_                          0.0544546549658481 	(obj:0)
_var2865_                          0.0986708174794458 	(obj:0)
_var2866_                           0.208290354578746 	(obj:0)
_var2868_                          0.0715558820692606 	(obj:0)
_var2869_                          0.0620331202209467 	(obj:0)
_var2870_                           0.172172835256304 	(obj:0)
_var2873_                           0.106347219172755 	(obj:0)
_var2874_                          0.0639636570679178 	(obj:0)
_var2875_                          0.0572869595292138 	(obj:0)
_var2876_                           0.115428032164863 	(obj:0)
_var2877_                          0.0832651154428938 	(obj:0)
_var2886_                           0.177872043530791 	(obj:0)
_var2887_                           0.142807808496284 	(obj:0)
_var2889_                           0.208785235788617 	(obj:0)
_var2893_                           0.170749751471267 	(obj:0)
_var2895_                           0.296733597419098 	(obj:0)
_var2896_                          0.0681430962301283 	(obj:0)
_var2897_                            0.12311178359464 	(obj:0)
_var2898_                          0.0403080393812263 	(obj:0)
_var2899_                            0.10844834688992 	(obj:0)
_var2900_                          0.0851720362748395 	(obj:0)
_var2901_                         0.00623410223757714 	(obj:0)
_var2903_                            0.11739975411534 	(obj:0)
_var2904_                            0.01162274259513 	(obj:0)
_var2906_                           0.200780774007663 	(obj:0)
_var2910_                          0.0726148823929183 	(obj:0)
_var2912_                           0.106450265302219 	(obj:0)
_var2913_                           0.120385801333145 	(obj:0)
_var2917_                          0.0458249300800392 	(obj:0)
_var2918_                           0.142520889337058 	(obj:0)
_var2919_                            0.17873361388098 	(obj:0)
_var2920_                           0.028771765224052 	(obj:0)
_var2921_                          0.0956457374667197 	(obj:0)
_var2922_                          0.0119510449847432 	(obj:0)
_var2923_                          0.0864053618946341 	(obj:0)
_var2926_                           0.107668361167521 	(obj:0)
_var2927_                           0.145339674982028 	(obj:0)
_var2928_                          0.0500993062640631 	(obj:0)
_var2930_                          0.0680348527213414 	(obj:0)
_var2931_                            0.25749534749974 	(obj:0)
_var2932_                          0.0735766919810047 	(obj:0)
_var2933_                           0.162836209398997 	(obj:0)
_var2935_                          0.0526401202591181 	(obj:0)
_var2936_                           0.206984071800391 	(obj:0)
_var2937_                         0.00675462117352198 	(obj:0)
_var2942_                          0.0317294151901277 	(obj:0)
_var2943_                          0.0635984068191984 	(obj:0)
_var2946_                          0.0218851328189216 	(obj:0)
_var2947_                           0.118392247380824 	(obj:0)
_var2948_                          0.0441029727736735 	(obj:0)
_var2950_                          0.0174795741917347 	(obj:0)
_var2954_                          0.0244341377281758 	(obj:0)
_var2955_                          0.0887354253153427 	(obj:0)
_var2956_                          0.0582758886879026 	(obj:0)
_var2957_                           0.152195586368361 	(obj:0)
_var2958_                           0.133452930103786 	(obj:0)
_var2959_                          0.0567355848337436 	(obj:0)
_var2960_                          0.0109060287636525 	(obj:0)
_var2962_                          0.0365750068091072 	(obj:0)
_var2965_                          0.0418167208958313 	(obj:0)
_var2966_                          0.0182270601089849 	(obj:0)
_var2968_                          0.0219611075987251 	(obj:0)
_var2969_                            0.17655232840467 	(obj:0)
_var2970_                          0.0183890680725453 	(obj:0)
_var2971_                          0.0383741935776208 	(obj:0)
_var2972_                          0.0329652037010978 	(obj:0)
_var2974_                          0.0510585035716891 	(obj:0)
_var2975_                          0.0552223780635435 	(obj:0)
_var2976_                          0.0936628545755811 	(obj:0)
_var2979_                          0.0325077268757789 	(obj:0)
_var2983_                          0.0203644902554466 	(obj:0)
_var2984_                          0.0507484058821767 	(obj:0)
_var2986_                          0.0636706097394083 	(obj:0)
_var2990_                          0.0959333317530528 	(obj:0)
_var2995_                          0.0837364264748647 	(obj:0)
_var2999_                         0.00824243469076081 	(obj:0)
_var3005_                         0.000495394183120765 	(obj:0)
_var3007_                         0.00207594802463623 	(obj:0)
_var3012_                         0.00427876849186443 	(obj:0)
